\ Model LinMcCormick
\ LP format - for model browsing. Use MPS format to capture full model detail.
Minimize
  x[1] + x[2] + x[3]
Subject To
 R0: - 10 x[1] - 100 x[6] + c16 >= -1000
 R1: - 1000 x[1] - 10000 x[6] + c16 >= -1e+07
 R2: - 1000 x[1] - 100 x[6] + c16 <= -100000
 R3: - 10 x[1] - 10000 x[6] + c16 <= -100000
 R4: - 10 x[2] - 1000 x[4] + c24 >= -10000
 R5: - 1000 x[2] - 10000 x[4] + c24 >= -1e+07
 R6: - 1000 x[2] - 1000 x[4] + c24 <= -1e+06
 R7: - 10 x[2] - 10000 x[4] + c24 <= -100000
 R8: - 10 x[2] - 1000 x[7] + c27 >= -10000
 R9: - 1000 x[2] - 10000 x[7] + c27 >= -1e+07
 R10: - 1000 x[2] - 1000 x[7] + c27 <= -1e+06
 R11: - 10 x[2] - 10000 x[7] + c27 <= -100000
 R12: - 10 x[3] - 1000 x[5] + c35 >= -10000
 R13: - 1000 x[3] - 10000 x[5] + c35 >= -1e+07
 R14: - 1000 x[3] - 1000 x[5] + c35 <= -1e+06
 R15: - 10 x[3] - 10000 x[5] + c35 <= -100000
 R16: - 10 x[3] - 1000 x[8] + c38 >= -10000
 R17: - 1000 x[3] - 10000 x[8] + c38 >= -1e+07
 R18: - 1000 x[3] - 1000 x[8] + c38 <= -1e+06
 R19: - 10 x[3] - 10000 x[8] + c38 <= -100000
 R20: 0.0025 x[4] + 0.0025 x[6] <= 1
 R21: - 0.0025 x[4] + 0.0025 x[5] + 0.0025 x[7] <= 1
 R22: - 0.01 x[5] + 0.01 x[8] <= 1
 R23: 100 x[1] + 833.33252 x[4] - c16 <= 83333.333
 R24: - 1250 x[4] + 1250 x[5] + c24 - c27 <= 0
 R25: - 2500 x[5] + c35 - c38 <= -1.25e+06
Bounds
 100 <= x[1] <= 10000
 1000 <= x[2] <= 10000
 1000 <= x[3] <= 10000
 10 <= x[4] <= 1000
 10 <= x[5] <= 1000
 10 <= x[6] <= 1000
 10 <= x[7] <= 1000
 10 <= x[8] <= 1000
End
